21458 : 13804 9870 
10844 : 1283 7165 
88 : 10308 16186 
10308 : 17264 88 
17264 : 10308 21504 
14539 : 109 2074 
16186 : 14166 18842 88 
9870 : 18488 21458 
961 : 18842 7961 
109 : 14539 14166 
14082 : 7961 18488 
1283 : 10844 16155 
19205 : 18842 
16155 : 1283 15195 
7165 : 21246 10844 
15195 : 16155 18842 
7961 : 961 14082 
18842 : 16186 15195 961 19205 
18488 : 14082 9870 
2074 : 14539 
21504 : 9536 17264 
14166 : 109 16186 
21246 : 7165 
9536 : 21504 
13804 : 21458 
19205 2074 21246 9536 13804 
